TCS_Benchmarks/redos_fix/snort1_output_distinct_3107_3106_9_0.smt2
(set-logic QF_S)
(declare-const x String)
(assert (str.in.re x (re.inter (re.* (re.comp  (re.union  (str.to_re "\u{0A}")  (str.to_re "\u{0D}"))) )  (re.++ (re.* (re.comp  (re.union  (str.to_re "\u{0A}")  (str.to_re "\u{0D}"))) ) (re.++  (re.++  (re.union  (str.to.re "\u{70}")  (str.to.re "\u{50}")) (re.++  (re.union  (str.to.re "\u{61}")  (str.to.re "\u{41}")) (re.++  (re.union  (str.to.re "\u{73}")  (str.to.re "\u{53}")) (re.++  (re.union  (str.to.re "\u{73}")  (str.to.re "\u{53}")) (re.++  (re.union  (str.to.re "\u{77}")  (str.to.re "\u{57}")) (re.++  (re.union  (str.to.re "\u{6f}")  (str.to.re "\u{4f}")) (re.++  (re.union  (str.to.re "\u{72}")  (str.to.re "\u{52}")) (re.++  (re.union  (str.to.re "\u{64}")  (str.to.re "\u{44}")) (re.++  (str.to.re "\u{3d}") (re.++ (re.* (re.comp  (re.union  (str.to_re "\u{0A}") (re.union  (str.to_re "\u{0D}")  (str.to.re "\u{26}")))) )  (re.union  (str.to.re "\u{22}")  (str.to.re "\u{27}")))))))))))) (re.* (re.comp  (re.union  (str.to_re "\u{0A}") (re.union  (str.to_re "\u{0D}")  (str.to.re "\u{26}")))) ))) (re.* (re.comp  (re.union  (str.to_re "\u{0A}") (re.union  (str.to_re "\u{0D}")  (str.to.re "\u{26}")))) ) )))
(check-sat)
(get-model)