TCS_Benchmarks/redos_fix/snort1_output_distinct_3107_3106_9_0.txt
[^\n\r]*
([^\n\r]*)([pP][aA][sS][sS][wW][oO][rR][dD]=[^\n\r&]*["'])([^\n\r&]*)
[^\n\r&]*